NAME: tsp_45
TYPE: TSP
DIMENSION: 45
EDGE_WEIGHT_TYPE: EUC_2D
NODE_COORD_SECTION
1 17 320
2 66 264
3 37 17
4 83 248
5 60 371
6 17 128
7 20 348
8 55 382
9 31 211
10 79 214
11 37 139
12 88 104
13 24 369
14 79 359
15 6 269
16 35 205
17 85 142
18 31 119
19 100 249
20 33 4
21 90 349
22 36 136
23 89 42
24 16 241
25 14 200
26 63 373
27 10 316
28 22 382
29 37 241
30 87 92
31 52 371
32 93 369
33 25 130
34 23 17
35 50 187
36 75 149
37 78 106
38 58 236
39 24 367
40 30 49
41 98 132
42 92 252
43 13 199
44 48 58
45 25 30
EOF
